NAME metamorphosis_srl_ilp
* Max problem is converted into Min one
ROWS
 N  OBJ
 L  constraint1_3890
 L  constraint2_770
 L  constraint2_771
 L  constraint2_772
 L  constraint2_773
 L  constraint2_3890
 L  constraint2_3891
 L  constraint2_3892
 L  constraint2_3893
 L  constraint2_6600
 L  constraint2_6601
 L  constraint2_6602
 L  constraint2_6603
 L  constraint2_2600
 L  constraint2_2601
 L  constraint2_2602
 L  constraint2_2603
COLUMNS
    MARKER    'MARKER'                 'INTORG'
    Z_389_0_0  OBJ       -9.0922371745711289e-05
    Z_389_0_0  constraint1_3890  1
    Z_389_0_0  constraint2_3890  1
    Z_389_0_1  OBJ       -4.5016766623465496e-03
    Z_389_0_1  constraint1_3890  1
    Z_389_0_1  constraint2_3891  1
    Z_389_0_2  OBJ       -8.6296265038356956e-01
    Z_389_0_2  constraint1_3890  1
    Z_389_0_2  constraint2_3892  1
    Z_389_0_3  OBJ       -9.0428835824355250e-04
    Z_389_0_3  constraint1_3890  1
    Z_389_0_3  constraint2_3893  1
    Z_389_0_4  OBJ       -3.1540462224094679e-02
    Z_389_0_4  constraint1_3890  1
    MARKER    'MARKER'                 'INTEND'
RHS
    RHS1      constraint1_3890  1
    RHS1      constraint2_770  1
    RHS1      constraint2_771  1
    RHS1      constraint2_772  1
    RHS1      constraint2_773  1
    RHS1      constraint2_3890  1
    RHS1      constraint2_3891  1
    RHS1      constraint2_3892  1
    RHS1      constraint2_3893  1
    RHS1      constraint2_6600  1
    RHS1      constraint2_6601  1
    RHS1      constraint2_6602  1
    RHS1      constraint2_6603  1
    RHS1      constraint2_2600  1
    RHS1      constraint2_2601  1
    RHS1      constraint2_2602  1
    RHS1      constraint2_2603  1
BOUNDS
 UP BND1      Z_389_0_0  1
 UP BND1      Z_389_0_1  1
 UP BND1      Z_389_0_2  1
 UP BND1      Z_389_0_3  1
 UP BND1      Z_389_0_4  1
ENDATA
